StudentsNr = 10;
InstructorsNr = 30;
DaysNr = 1;
SlotsPerDay = 10;
AvailabilitySlotsLenght = 2;
RoomNr = 1;
ProgrammNr = 2;
DegreeNr = 2;
RolesNr = 2;
CoursesNr = 2;
InstructorsProgramm = [{1}, {1, 2}, {1, 2}, {2}, {2}, {1, 2}, {1}, {1}, {1}, {1}, {1}, {2}, {1, 2}, {1, 2}, {1}, {2}, {2}, {2}, {1, 2}, {1}, {2}, {1}, {1}, {2}, {2}, {1, 2}, {1, 2}, {1}, {1, 2}, {1}];
InstructorRolesPerProgramm = [|{1, 2, 6, 8, 9, 28}, {6, 9, 20, 23, 30}|{2, 4, 6, 21, 25}, {6, 17, 18, 21, 25}|];
InstructorsAvailability = [|0, 1, 0, 1, 0, |0, 1, 1, 1, 1, |1, 1, 1, 1, 1, |0, 1, 1, 1, 1, |1, 0, 1, 1, 0, |1, 1, 1, 0, 1, |0, 1, 1, 1, 1, |1, 1, 1, 1, 0, |1, 1, 1, 1, 1, |0, 0, 1, 0, 1, |1, 0, 0, 1, 1, |0, 1, 1, 1, 1, |0, 0, 1, 1, 1, |0, 1, 1, 1, 1, |0, 1, 1, 0, 0, |0, 1, 1, 1, 1, |1, 1, 1, 1, 1, |1, 1, 1, 1, 1, |1, 0, 0, 0, 0, |0, 1, 1, 1, 1, |1, 0, 0, 1, 1, |0, 1, 1, 1, 1, |1, 1, 1, 1, 1, |1, 1, 1, 0, 1, |0, 1, 1, 1, 1, |0, 0, 1, 1, 1, |0, 0, 0, 1, 1, |1, 1, 1, 1, 1, |0, 0, 0, 1, 1, |0, 0, 1, 0, 0|];
StudentsProgramm = [2, 2, 2, 2, 1, 2, 2, 1, 2, 1];
StudentsDegree = [1, 1, 1, 1, 2, 1, 2, 1, 1, 2];
StudentsSupervisorId = [5, 6, 19, 6, 20, 17, 17, 7, 4, 29];
StudentsCourseIds = [{1, 2}, {1, 2}, {1, 2}, {1, 2}, {1, 2}, {1, 2}, {1, 2}, {1, 2}, {1, 2}, {1, 2}];
StudentsAvailability = [|0, 0, 1, 1, 1, |0, 0, 0, 1, 1, |1, 1, 1, 1, 1, |1, 1, 1, 1, 1, |1, 1, 1, 1, 1, |0, 0, 0, 1, 1, |1, 1, 1, 1, 1, |0, 0, 1, 1, 1, |1, 0, 0, 0, 0, |1, 1, 1, 0, 0|];
TheoryticalMinCard = [0, 0, 0, 0, 0, 0, 0, 0, 0, 0];
CoursesInstructorIds = [{5, 6, 7, 8, 9, 14, 15, 16, 19, 21, 25, 28, 29}, {2, 4, 6, 8, 9, 14, 18, 26, 29, 30}];
RolesDemands = [2, 4];
RolesContinuity = [];
ExamLen = [2, 2, 2, 2, 1, 2, 1, 2, 2, 1];
LunchTsMinLen = 1;
LunchStarts = [2..7];
SupervisorAvailable = 0;
OptimalLunchLenght = [1, 1];
OptimalStartTs = [2, 0];
OptimalFinishTs = [2, 10];
MinimizeRooms = 200;
RolesSoftContinuity = [|1, 2|2, 0|];
SameDegreeInRoom = 0;
Mergeability = 1;
